language ESSENCE' 1.0
$ loaded file: carseqdata/csplib-instance-71
letting numcars=200
letting numclasses=27
letting numoptions=5
letting optMax=[1, 2, 1, 2, 1]
letting windowSize=[2, 3, 3, 5, 5]
letting numberPerClass=[7, 1, 20, 6, 12, 18, 6, 13, 29, 7, 1, 6, 1, 4, 2, 18, 6, 1, 7, 3, 2, 13, 1, 3, 5, 1, 7]
letting optionsRequired=[[0, 1, 1, 1, 0], [0, 0, 1, 0, 1], [1, 1, 0, 0, 0], [1, 1, 0, 1, 0], [1, 0, 0, 1, 0], [1, 0, 0, 0, 0], [1, 0, 1, 0, 0], [0, 1, 1, 0, 0], [0, 1, 0, 0, 0], [1, 1, 1, 0, 0], [1, 0, 1, 1, 0], [0, 0, 1, 0, 0], [1, 1, 1, 0, 1], [0, 0, 1, 1, 0], [0, 0, 0, 1, 1], [0, 1, 0, 1, 0], [0, 0, 0, 0, 1], [1, 0, 1, 0, 1], [1, 0, 0, 0, 1], [0, 1, 1, 0, 1], [0, 1, 1, 1, 1], [0, 0, 0, 1, 0], [0, 1, 0, 1, 1], [1, 1, 1, 0, 0], [0, 1, 0, 0, 1], [1, 0, 0, 0, 0], [1, 0, 0, 0, 0]]
